37 500
7 134
4 128
3 139
6 177
4 19
7 172
4 154
10 189
9 135
4 189
8 134
10 158
3 177
5 158
4 154
8 128
10 108
6 193
3 122
6 128
9 139
10 164
3 128
11 116
7 193
11 164
4 122
7 106
9 158
7 196
8 108
9 196
6 106
3 158
8 116
4 135
5 172
